\ENCODING=ISO-8859-1
\Problem name: IloCplex

Maximize
 obj: 3.33333333333333 x12 + 7.33333333333333 x13 + 3 x14
      + 3.33333333333334 x15 + 3.16666666666667 x16 + 3.16666666666667 x17
      + 3.83333333333333 x18 + 3 x19 + 4.16666666666666 x20 + 3 x21
      + 3.16666666666667 x22 + 4 x23 + 3 x24 + 3 x25 + 3 x26 + 7.5 x27
      + 3.33333333333333 x28 + 3 x29 + 3.16666666666667 x30 - x31
      - 1.83333333333333
Subject To
 c1:  x1 <= 0
 c2:  x2 <= 0
 c3:  x3 <= 0
 c4:  x4 <= 0
 c5:  x5 <= 0
 c6:  x6 <= 0
 c7:  x7 <= 0
 c8:  x8 <= 0
 c9:  x9 <= 0
 c10: x10 <= 0
 c11: x11 <= 0
 c12: 2 x12 + 5 x13 + 2 x14 + 2 x15 + 2 x16 + 2 x17 + 2 x18 + 2 x19 + 2 x20
      + 2 x21 + 2 x22 + 2 x23 + 2 x24 + 2 x25 + 2 x26 + 5 x27 + 2 x28 + 2 x29
      + 2 x30 - x32  = 0
Bounds
 0 <= x1 <= 1
 0 <= x2 <= 1
 0 <= x3 <= 1
 0 <= x4 <= 1
 0 <= x5 <= 1
 0 <= x6 <= 1
 0 <= x7 <= 1
 0 <= x8 <= 1
 0 <= x9 <= 1
 0 <= x10 <= 1
 0 <= x11 <= 1
 0 <= x12 <= 1
 0 <= x13 <= 1
 0 <= x14 <= 1
 0 <= x15 <= 1
 0 <= x16 <= 1
 0 <= x17 <= 1
 0 <= x18 <= 1
 0 <= x19 <= 1
 0 <= x20 <= 1
 0 <= x21 <= 1
 0 <= x22 <= 1
 0 <= x23 <= 1
 0 <= x24 <= 1
 0 <= x25 <= 1
 0 <= x26 <= 1
 0 <= x27 <= 1
 0 <= x28 <= 1
 0 <= x29 <= 1
 0 <= x30 <= 1
      x31 Free
      x32 Free
Binaries
 x1  x2  x3  x4  x5  x6  x7  x8  x9  x10  x11  x12  x13  x14  x15  x16  x17 
 x18  x19  x20  x21  x22  x23  x24  x25  x26  x27  x28  x29  x30 
Pwl
 p1: x31 = x32 2 (5, 10) 1.5
End
